(set-logic UFNIRAT)
(declare-sort s 0)
(declare-fun o1 (s) Real)
(declare-fun i1 (s) Real)
(declare-fun i2 (s) Real)
(declare-fun alpha (s) Real)
(declare-const x1 s)
(declare-const sqrt2 Real)
(assert (= (* sqrt2 sqrt2) 2))
(assert (= (o1 x1) (+ (* (i1 x1) sqrt2 (sin (alpha x1))) (* (i2 x1) sqrt2 (cos (alpha x1))))))
(check-sat) 
